letting n =  10
letting blocks =  [[1, 2], [1, 3], [1, 4], [1, 5], [1, 9], [1, 10], [2, 6], [2, 7], [2, 8], [2, 9], [2, 10], [3, 3], [3, 6], [3, 7], [3, 8], [4, 2], [4, 3], [4, 6], [4, 7], [4, 8], [4, 9], [5, 6], [5, 7], [5, 10], [6, 4], [6, 8], [7, 1], [7, 4], [7, 6], [8, 3], [8, 4], [8, 5], [8, 9], [9, 2], [9, 3], [9, 7], [9, 8], [10, 2], [10, 7], [10, 10]]
